
        $ From http://www.csplib.org/Problems/prob009/data/helmut.pdf
        $ Problem number 155
        $ Sequence length : 25
        language ESSENCE' 1.0
        letting sizemaster be 527
        letting sizes be sequence(11,12,13,14,19,30,41,47,50,52,59,68,71,81,94,97,107,132,147,151,155,169,175,183,197)
        